-436 184
-149 -307
262 -196
-314 -321
-416 -201
-184 -198
-228 -267
290 96
-48 -325
6 32
178 215
397 -190
320 184
99 -221
-36 17
-443 -138
-204 193
314 182
-49 163
204 98
-223 38
-243 -84
-13 243
-97 218
200 220
-240 271
-112 -373
233 -5
-113 334
-148 311
